
  32    4
  10   10   10   10

   0   0   0   0   0   2 2 31 
   7   1   1   1   0   2 30 3 
   6   6   4   0   1   1 4 
   2   3   0   8   5   1 5 
   8   3   5   3   0   1 6 
   2   3   5   0   8   2 29 7 
   1   6   3   4   0   1 8 
   7   6   0   4   2   1 9 
   1   6   0   4   2   1 10 
   7   6   2   0   5   1 11 
   5   2   4   0   2   2 28 12 
   1   0   4   5   3   1 13 
   7   5   0   3   5   1 14 
   4   0   3   5   4   2 27 15 
   8   0   7   6   4   2 26 16 
   5   3   4   6   0   1 17 
   6   4   3   0   5   1 18 
   7   7   3   0   5   1 19 
   1   3   0   5   4   1 20 
  10   5   4   4   0   1 21 
   6   4   2   4   0   1 22 
   7   3   2   0   3   1 23 
  10   3   4   3   0   1 24 
   9   3   9   2   0   1 25 
   5   0   2   3   5   1 32
   2   2   0   2   5   1 32
   3   2   3   0   3   1 32
   6   4   3   0   5   1 32
   3   3   5   4   0   1 32
   2   7   6   2   0   1 32
   3   4   8   6   0   1 32
   0   0   0   0   0   0 
